lbl,CUST NO.,READY TIME,XCOORD.,YCOORD.,DEMAND,DUE DATE,SERVICE TIME
2,18,0,8,124,10,1179,90
2,185,0,5,119,20,1180,90
2,7,0,1,109,10,1182,90
2,104,0,8,119,20,1182,90
2,117,0,7,115,10,1184,90
2,181,0,6,113,20,1184,90
2,161,76,10,118,10,144,90
2,54,319,4,125,30,398,90
2,132,515,0,117,30,585,90
2,49,904,9,114,20,954,90
